c A SAT instance generated from a 3-CNF formula that had 40 clauses and 10 variables
p cnf 10 40
8 -10 -9 0
5 -10 6 0
1 -7 -10 0
-9 7 10 0
6 -8 7 0
-5 -10 -2 0
7 -6 -1 0
10 7 -2 0
4 5 -10 0
6 -1 -4 0
-6 -8 -9 0
2 6 -5 0
9 4 5 0
6 -5 2 0
8 5 -3 0
-1 -10 -2 0
-8 -6 2 0
6 -4 3 0
-4 -8 -7 0
1 -8 10 0
-5 -4 8 0
-10 -7 5 0
7 10 5 0
-9 -1 -6 0
-7 -3 -5 0
-5 -3 4 0
5 -4 -2 0
10 8 -4 0
-3 -7 1 0
7 6 -9 0
-1 6 10 0
9 5 -2 0
1 10 5 0
2 -6 -5 0
-4 -8 -3 0
8 -3 10 0
2 5 -6 0
2 5 8 0
7 8 5 0
1 -8 6 0
